StudentsNr = 10;
InstructorsNr = 35;
DaysNr = 1;
SlotsPerDay = 20;
AvailabilitySlotsLenght = 10;
RoomNr = 2;
ProgrammNr = 1;
DegreeNr = 2;
RolesNr = 0;
CoursesNr = 0;
InstructorsProgramm = [{1}, {1}, {1}, {1}, {1}, {1}, {1}, {1}, {1}, {1}, {1}, {1}, {1}, {1}, {1}, {1}, {1}, {1}, {1}, {1}, {1}, {1}, {1}, {1}, {1}, {1}, {1}, {1}, {1}, {1}, {1}, {1}, {1}, {1}, {1}];
InstructorRolesPerProgramm = array2d(1..ProgrammNr,{},[]);
InstructorsAvailability = [|1, 1, |0, 1, |1, 0, |1, 1, |0, 0, |0, 0, |0, 0, |0, 1, |0, 0, |1, 1, |0, 1, |1, 1, |0, 0, |0, 0, |0, 1, |1, 1, |1, 1, |0, 1, |0, 0, |1, 1, |1, 1, |0, 1, |1, 1, |1, 1, |1, 0, |1, 1, |0, 1, |1, 1, |1, 1, |1, 1, |1, 1, |1, 1, |1, 1, |0, 1, |1, 1|];
StudentsProgramm = [1, 1, 1, 1, 1, 1, 1, 1, 1, 1];
StudentsDegree = [1, 1, 2, 1, 1, 2, 1, 1, 1, 2];
StudentsSupervisorId = [33, 23, 33, 25, 23, 6, 29, 29, 27, 29];
StudentsCourseIds = [{}, {}, {}, {}, {}, {}, {}, {}, {}, {}];
StudentsAvailability = [|0, 1, |0, 0, |0, 1, |1, 1, |1, 1, |1, 1, |0, 0, |1, 1, |0, 0, |0, 1|];
TheoryticalMinCard = [1, 1, 1, 1, 1, 1, 1, 1, 1, 1];
CoursesInstructorIds = [];
RolesDemands = [];
RolesContinuity = [];
ExamLen = [2, 2, 2, 2, 2, 2, 2, 2, 2, 2];
LunchTsMinLen = 1;
LunchStarts = [6..11];
SupervisorAvailable = 0;
OptimalLunchLenght = [0, 2];
OptimalStartTs = [0, 0];
OptimalFinishTs = [0, 19];
MinimizeRooms = 400;
RolesSoftContinuity = array2d(1..2,{},[]);
SameDegreeInRoom = 0;
Mergeability = 1;
